Version identifier: 22.1.0.0 | 2022-03-09 | 1a383f8ce
CPXPARAM_Read_DataCheck                          1
Tried aggregator 2 times.
Aggregator has done 200 substitutions...
MIP Presolve eliminated 604310 rows and 502 columns.
MIP Presolve modified 190315 coefficients.
Aggregator did 200 substitutions.
Reduced MIP has 1223099 rows, 60100 columns, and 7422482 nonzeros.
Reduced MIP has 60100 binaries, 0 generals, 0 SOSs, and 0 indicators.
Presolve time = 132.41 sec. (75447.63 ticks)
Probing time = 6.37 sec. (2783.84 ticks)
Tried aggregator 1 time.
Presolve has eliminated 5 rows and 550 columns...
Detecting symmetries...
MIP Presolve eliminated 5 rows and 550 columns.
Reduced MIP has 1223094 rows, 59550 columns, and 7422467 nonzeros.
Reduced MIP has 59550 binaries, 0 generals, 0 SOSs, and 0 indicators.
Presolve time = 31.49 sec. (12382.94 ticks)
Probing time = 0.45 sec. (143.00 ticks)
Clique table members: 486053.
MIP emphasis: balance optimality and feasibility.
MIP search method: dynamic search.
Parallel mode: deterministic, using up to 4 threads.
Root relaxation solution time = 64.17 sec. (21443.76 ticks)

        Nodes                                         Cuts/
   Node  Left     Objective  IInf  Best Integer    Best Bound    ItCnt     Gap

      0     0        1.0833  1499                      1.0833    56925         
      0     0        3.0000   279                  Cuts: 1944    58088         
      0     0        3.0000   280                  Cuts: 1292    58694         
      0     0        3.0000   279                 Cliques: 35    58889         
Detecting symmetries...
      0     2        3.0000    44                      3.0000    58889         
Elapsed time = 852.21 sec. (246486.88 ticks, tree = 0.02 MB, solutions = 0)
      1     3        3.0000    42                      3.0000    58938         
      3     3        3.0000    44                      3.0000    58902         
      5     4        3.0000    48                      3.0000    59063         
      6     5        3.0000    42                      3.0000    59249         
      8     8        3.0000    54                      3.0000    59456         
     11     9        3.0000    59                      3.0000    59653         
     12    10        3.0000    53                      3.0000    59679         
     15    11        3.0000    28                      3.0000    59749         
     18    11        3.0208  1575                      3.0000    62140         
     20    14        3.0000    53                      3.0000    60377         
Elapsed time = 894.41 sec. (255020.82 ticks, tree = 28.81 MB, solutions = 0)
     21    13        3.0208  1561                      3.0000    64208         
     30    22        5.0000   528                      3.0000    70200         
     39    29        5.0000   507                      3.0000    70221         
     45    35        5.0000   488                      3.0000    74907         
     53    38        3.0000    18                      3.0000    82176         
     61    41        5.0000   660                      3.0000    84337         
     66    42        5.0000   422                      3.0000    84489         
     75    50        5.0000   192                      3.0000    84492         
     83    63        5.0000   386                      3.0000    85072         
     91    68        5.0000   366                      3.0000    85081         
Elapsed time = 964.51 sec. (267777.03 ticks, tree = 16.61 MB, solutions = 0)
     98    74        5.0000   342                      3.0000    85099         
    102    82        5.0000   326                      3.0000    86590         
    107    85        5.0000    18                      3.0000    86695         
*   109    70      integral     0        5.0000        3.0000    86696   40.00%
    110    30        3.0000    40        5.0000        3.0000    86700   40.00%
    116    34        3.0000    24        5.0000        3.0000    86775   40.00%
    118    32    infeasible              5.0000        3.0000    88560   40.00%
    120    32        3.0000    44        5.0000        3.0000    88767   40.00%
    121    33        3.0000    46        5.0000        3.0000    88872   40.00%
    123    35        3.0000    46        5.0000        3.0000    88921   40.00%
    129    41        3.0000    46        5.0000        3.0000    88947   40.00%
Elapsed time = 1088.38 sec. (282436.40 ticks, tree = 11.60 MB, solutions = 1)
    133    45        3.0000    46        5.0000        3.0000    88981   40.00%
    140    52        3.0000    46        5.0000        3.0000    89036   40.00%
    147    59        3.0000    46        5.0000        3.0000    89079   40.00%
    152    64        3.0000    46        5.0000        3.0000    89162   40.00%
    159    71        3.0000    46        5.0000        3.0000    89211   40.00%
    163    75        3.0000    46        5.0000        3.0000    89232   40.00%
    166    72    infeasible              5.0000        3.0000    90541   40.00%
    167    72        5.0417  1594        5.0000        3.0000    94485   40.00%
    171    61        3.0000    40        5.0000        3.0000    97329   40.00%
    180    60    infeasible              5.0000        3.0000    98854   40.00%
Elapsed time = 1185.65 sec. (296139.14 ticks, tree = 24.30 MB, solutions = 1)
    182    56    infeasible              5.0000        3.0000   101532   40.00%
    188    59    infeasible              5.0000        3.0000   101110   40.00%
    193    60        3.0000    42        5.0000        3.0000   101111   40.00%
    198    59    infeasible              5.0000        3.0000   101744   40.00%
    201    61    infeasible              5.0000        3.0000   104493   40.00%
    206    61    infeasible              5.0000        3.0000   102173   40.00%
    209    63    infeasible              5.0000        3.0000   103606   40.00%
    211    59        3.0000    42        5.0000        3.0000   105822   40.00%
    214    63        3.0000    42        5.0000        3.0000   106286   40.00%
    216    60        3.0000    42        5.0000        3.0000   107125   40.00%
Elapsed time = 1282.89 sec. (308198.66 ticks, tree = 14.97 MB, solutions = 1)
    221    57    infeasible              5.0000        3.0000   109223   40.00%
    224    57    infeasible              5.0000        3.0000   110036   40.00%
    226    55    infeasible              5.0000        3.0000   111415   40.00%
    231    56    infeasible              5.0000        3.0000   110982   40.00%
    233    54        3.0000    54        5.0000        3.0000   114285   40.00%
    237    58        3.0000    46        5.0000        3.0000   114456   40.00%
    240    54        3.0000    42        5.0000        3.0000   115775   40.00%
    244    58        3.0000    42        5.0000        3.0000   116435   40.00%
    247    56    infeasible              5.0000        3.0000   118424   40.00%
    250    54    infeasible              5.0000        3.0000   117709   40.00%
Elapsed time = 1365.34 sec. (320950.57 ticks, tree = 24.14 MB, solutions = 1)
    251    56        3.0000    40        5.0000        3.0000   119428   40.00%
    254    58        3.0000    42        5.0000        3.0000   119442   40.00%
    258    59        3.0000    42        5.0000        3.0000   121074   40.00%
    263    58    infeasible              5.0000        3.0000   121729   40.00%
    267    56    infeasible              5.0000        3.0000   122414   40.00%
    270    54    infeasible              5.0000        3.0000   123602   40.00%
    273    47    infeasible              5.0000        3.0000   125313   40.00%
    278    56        3.0000    42        5.0000        3.0000   122474   40.00%
    282    53    infeasible              5.0000        3.0000   122553   40.00%
    291    50    infeasible              5.0000        3.0000   122676   40.00%
Elapsed time = 1425.38 sec. (332276.74 ticks, tree = 23.18 MB, solutions = 1)
    296    47    infeasible              5.0000        3.0000   123785   40.00%
    298    45    infeasible              5.0000        3.0000   125893   40.00%
    301    40    infeasible              5.0000        3.0000   129768   40.00%
    305    43        3.0000    43        5.0000        3.0000   127601   40.00%
    307    40    infeasible              5.0000        3.0000   130564   40.00%
    309    39    infeasible              5.0000        3.0000   132914   40.00%
    311    38    infeasible              5.0000        3.0000   135262   40.00%
    313    40    infeasible              5.0000        3.0000   138597   40.00%
    314    39    infeasible              5.0000        3.0000   142089   40.00%
    317    37    infeasible              5.0000        3.0000   142373   40.00%
Elapsed time = 1487.84 sec. (345667.63 ticks, tree = 11.92 MB, solutions = 1)
    320    43        3.0000    42        5.0000        3.0000   145718   40.00%
    325    41    infeasible              5.0000        3.0000   145782   40.00%
    333    37    infeasible              5.0000        3.0000   149689   40.00%
    336    34    infeasible              5.0000        3.0000   149732   40.00%
    338    32    infeasible              5.0000        3.0000   150093   40.00%
    341    30    infeasible              5.0000        3.0000   150267   40.00%
    348    30        3.0000    40        5.0000        3.0000   150950   40.00%
    357    32    infeasible              5.0000        3.0000   150995   40.00%
    360    29    infeasible              5.0000        3.0000   151149   40.00%
    364    34        3.0000    42        5.0000        3.0000   150937   40.00%
Elapsed time = 1557.12 sec. (358360.37 ticks, tree = 12.40 MB, solutions = 1)
    368    31    infeasible              5.0000        3.0000   151067   40.00%
    370    30    infeasible              5.0000        3.0000   151175   40.00%
    373    29    infeasible              5.0000        3.0000   151263   40.00%
    376    27    infeasible              5.0000        3.0000   151402   40.00%
    378    22    infeasible              5.0000        3.0000   152269   40.00%
    381    19    infeasible              5.0000        3.0000   152492   40.00%
    382    29        3.0000    59        5.0000        3.0000   151883   40.00%
    385    17    infeasible              5.0000        3.0000   152862   40.00%
    388    19        3.0000    52        5.0000        3.0000   152883   40.00%
    396    25        3.0000    54        5.0000        3.0000   152902   40.00%
Elapsed time = 1631.78 sec. (373291.45 ticks, tree = 1.84 MB, solutions = 1)
    407    29        3.0000    54        5.0000        3.0000   153293   40.00%
    416    34        3.0000    54        5.0000        3.0000   153302   40.00%
    429    20    infeasible              5.0000        3.0000   154480   40.00%
    442    27    infeasible              5.0000        3.0000   154996   40.00%
    456    20    infeasible              5.0000        3.0000   155588   40.00%
    469    30        3.0000    24        5.0000        3.0000   155998   40.00%
    483    20    infeasible              5.0000        3.0000   156433   40.00%
    504    24    infeasible              5.0000        3.0000   178311   40.00%
    524    20        3.0000    32        5.0000        3.0000   178265   40.00%
    538    41        3.0000    30        5.0000        3.0000   178346   40.00%
Elapsed time = 1814.42 sec. (413405.21 ticks, tree = 5.22 MB, solutions = 1)
    559    23        3.0000    32        5.0000        3.0000   178747   40.00%
    583    25        3.0000    32        5.0000        3.0000   178778   40.00%
*   590    14      integral     0        3.0000        3.0000   179279    0.00%
    596    34    infeasible              3.0000        3.0000   120928    0.00%

Clique cuts applied:  5
Implied bound cuts applied:  86

Root node processing (before b&c):
  Real time             =  848.09 sec. (244675.11 ticks)
Parallel b&c, 4 threads:
  Real time             = 3062.58 sec. (552036.37 ticks)
  Sync time (average)   =  373.83 sec.
  Wait time (average)   =    0.00 sec.
                          ------------
Total (root+branch&cut) = 3910.67 sec. (796711.48 ticks)
y[0] = 1.0
y[1] = 1.0
y[2] = 1.0
y[3] = 1.0
